NAME : XML100_3233_10
DIMENSION : 101
NB_CLUSTERS : 4
CLUSTERING_ALG : KMeans
CLUSTERING_PARAMS : k(3)
CLUSTERS
1 0
2 3 4 6 9 13 15 16 19 20 25 29 32 38 40 42 49 50 52 53 54 56 61 63 67 69 70 72 75 78 82 86 93 95 99 100
3 1 2 5 11 18 26 28 30 33 36 39 44 45 48 55 57 60 65 80 81 84 85 88 94 96 97
4 7 8 10 12 14 17 21 22 23 24 27 31 34 35 37 41 43 46 47 51 58 59 62 64 66 68 71 73 74 76 77 79 83 87 89 90 91 92 98
EOF